c --- [ banner ] -------------------------------------------------------------
c 
c CaDiCaL Radically Simplified CDCL SAT Solver
c Copyright (c) 2016-2021 A. Biere, M. Fleury, N. Froleyks
c 
c Version 1.5.2 a5f15211db36c3956764e18194dd5bd63bf3b5e6
c g++ (GCC) 9.3.0 -Wall -Wextra -O3 -DNDEBUG
c Fri Oct 21 01:27:37 EDT 2022 Linux gra-login3 3.10.0-1160.66.1.el7.x86_64 x86_64
c 
c --- [ limit ] --------------------------------------------------------------
c 
c setting conflict limit to 200000 conflicts (due to '200000')
c 
c --- [ parsing input ] ------------------------------------------------------
c 
c reading DIMACS file from '33.cubes170.adj'
c opening file to read '33.cubes170.adj'
c found 'p cnf 6160 1595469' header
c parsed 1595469 clauses in 15.90 seconds process time
c closing file '33.cubes170.adj'
c after reading 1457566735 bytes 1390.0 MB
c 
c --- [ options ] ------------------------------------------------------------
c 
c all options are set to their default value
c 
c --- [ solving ] ------------------------------------------------------------
c 
c time measured in process time since initialization
c 
c  seconds    reductions  redundant   irredundant
c          MB     restarts       trail       variables
c            level   conflicts       glue         remaining
c 
c * 15.90 1372  0 0   0    0    0  0% 0 1595422 2391 39%
c { 16.98 1425  0 0   0    0    0  0% 0 1595422 2391 39%
c i 18.78 1469 644 0   3   42   33 32% 13 1595422 2388 39%
c i 20.48 1484 276 0  18  106   82 26% 22 1595422 2387 39%
c i 20.62 1484 265 0  19  112   86 26% 23 1595422 2386 39%
c i 20.84 1487 237 0  23  128   99 27% 24 1595422 2385 39%
c i 21.38 1492 196 0  29  166  128 26% 25 1595422 2384 39%
c i 21.40 1492 194 0  29  168  129 26% 25 1595422 2374 39%
c i 21.72 1492 174 0  29  194  151 26% 25 1595422 2373 39%
c i 21.85 1492 162 0  29  210  163 26% 26 1595422 2371 38%
c i 21.98 1494 156 0  30  222  173 26% 26 1595422 2370 38%
c i 22.01 1494 152 0  30  229  179 27% 26 1595422 2369 38%
c - 26.61 1459 131 1  45  301  232 27% 27 219266 2369 38%
c i 26.99 1460 120 1  46  345  270 27% 27 219266 2366 38%
c i 27.48 1369 119 1  54  382  303 27% 29 219266 2365 38%
c i 27.69 1369 119 1  60  403  322 27% 29 219266 2364 38%
c i 27.92 1369 108 1  61  456  354 27% 27 219266 2363 38%
c i 27.95 1369 106 1  61  468  365 27% 26 219266 2362 38%
c i 27.95 1369 106 1  61  469  365 27% 26 219266 2361 38%
c i 27.98 1369 105 1  61  474  369 27% 26 219266 2360 38%
c 
c  seconds     reductions  redundant   irredundant
c          MB      restarts       trail       variables
c             level   conflicts       glue         remaining
c 
c i 27.99 1369 104 1  61  493  387 27% 26 219266 2359 38%
c i 28.18 1369 101 1  69  536  424 27% 28 219266 2358 38%
c i 28.31 1369 100 1  75  563  445 27% 28 219266 2357 38%
c i 28.36 1369 101 1  77  571  451 27% 28 219266 2356 38%
c i 28.59 1369 102 1  85  602  478 27% 29 219266 2355 38%
c i 28.67 1369 101 1  87  609  484 27% 29 219266 2354 38%
c i 28.73 1369 97 1  87  645  510 27% 28 219266 2353 38%
c i 28.74 1369 96 1  87  653  516 27% 28 219266 2352 38%
c i 28.77 1369 95 1  87  670  531 27% 28 219266 2351 38%
c i 28.86 1369 92 1  87  742  562 27% 28 219266 2350 38%
c i 28.89 1369 91 1  87  760  579 28% 28 219266 2349 38%
c i 28.94 1369 91 1  87  791  600 28% 28 219266 2348 38%
c i 28.94 1369 91 1  88  792  600 28% 28 219266 2347 38%
c i 28.95 1369 91 1  89  796  603 28% 28 219266 2346 38%
c i 28.96 1369 90 1  91  805  611 28% 28 219266 2345 38%
c i 28.98 1369 90 1  94  815  618 28% 28 219266 2344 38%
c i 29.01 1369 88 1  98  846  639 28% 28 219266 2343 38%
c i 29.08 1369 80 1  99  976  745 28% 27 219266 2342 38%
c i 29.10 1369 79 1 101  986  753 28% 27 219266 2341 38%
c } 29.22 1369 79 1 104 1001  766 28% 27 219266 2341 38%
c 
c  seconds    reductions  redundant  irredundant
c          MB     restarts       trail      variables
c            level   conflicts       glue        remaining
c 
c [ 29.22 1369  0 1 104 1001  766  0% 0 219266 2341 38%
c O 29.22 1369  1 1 104 1002  767 14% 1 219266 2341 38%
c i 29.22 1369  1 1 104 1004  768 13% 1 219266 2307 37%
c i 29.31 1369 12 1 104 1028  784 22% 8 219266 2306 37%
c i 29.31 1369 13 1 104 1033  788 23% 10 219266 2305 37%
c i 29.36 1369 22 1 104 1070  816 28% 17 219266 2304 37%
c i 29.38 1369 25 1 104 1097  831 29% 18 219266 2303 37%
c i 29.39 1369 25 1 104 1098  831 29% 18 219266 2302 37%
c - 29.75 1459 26 2 104 1109  725 29% 19 218604 2302 37%
c i 29.78 1459 26 2 104 1113  728 30% 19 218604 2301 37%
c i 29.85 1459 26 2 104 1178  775 30% 19 218604 2300 37%
c i 29.97 1459 26 2 104 1445  982 32% 21 218604 2299 37%
c i 29.98 1459 26 2 104 1446  982 32% 21 218604 2298 37%
c i 30.03 1459 27 2 104 1580 1069 32% 22 218604 2297 37%
c i 30.06 1459 27 2 104 1639 1116 32% 22 218604 2296 37%
c i 30.10 1459 27 2 104 1717 1163 32% 22 218604 2295 37%
c i 30.10 1459 27 2 104 1732 1175 32% 22 218604 2294 37%
c i 30.11 1459 27 2 104 1748 1186 32% 22 218604 2293 37%
c i 30.22 1459 26 2 105 2056 1404 32% 21 218604 2292 37%
c i 30.23 1459 26 2 105 2064 1408 32% 21 218604 2291 37%
c 
c  seconds    reductions  redundant   irredundant
c          MB     restarts       trail       variables
c            level   conflicts       glue         remaining
c 
c - 30.55 1458 28 3 105 2314 1224 32% 22 218571 2291 37%
c i 30.86 1457 28 3 105 2535 1374 52% 23 218571 2290 37%
c i 31.00 1457 27 3 105 2817 1536 53% 23 218571 2289 37%
c ] 31.09 1457 27 3 105 3003 1654 54% 22 218571 2289 37%
c { 31.09 1457 79 3 105 3003 1654 75% 27 218571 2289 37%
c F 31.09 1457 79 3 106 3004 1655 75% 27 218571 2289 37%
c i 31.18 1457 75 3 106 3080 1708 73% 26 218571 2288 37%
c i 31.20 1457 73 3 106 3130 1745 72% 26 218571 2287 37%
c i 31.23 1457 71 3 114 3187 1789 71% 26 218571 2286 37%
c i 31.23 1457 71 3 115 3193 1794 71% 26 218571 2285 37%
c i 31.24 1457 70 3 115 3200 1800 71% 26 218571 2284 37%
c i 31.42 1457 62 3 118 3500 2026 66% 25 218571 2283 37%
c - 31.72 1456 55 4 128 3921 1722 63% 25 218548 2283 37%
c } 31.99 1456 45 4 128 4851 2372 59% 24 218548 2283 37%
c 1 31.99 1456 45 4 128 4851 2372 59% 24 218548 2283 37%
c 
c --- [ writing output ] -----------------------------------------------------
c 
c writing simplified CNF to DIMACS file 'simp/33.cubes170.adj.simp1'
c * 31.99 1456 45 4 128 4851 2372 59% 24 218548 2283 37%
c opening file to write 'simp/33.cubes170.adj.simp1'
c writing 'p cnf 6160 218548' header
c closing file 'simp/33.cubes170.adj.simp1'
c after writing 100771230 bytes 96.1 MB
c wrote 218548 clauses in 0.69 seconds process time
c 
c --- [ writing extension ] --------------------------------------------------
c 
c writing extension stack to 'simp/33.cubes170.adj.ext1'
c opening file to write 'simp/33.cubes170.adj.ext1'
c closing file 'simp/33.cubes170.adj.ext1'
c after writing 10846 bytes 0.0 MB
c wrote 733 witnesses in 0.00 seconds process time
c 
c --- [ result ] -------------------------------------------------------------
c 
s SATISFIABLE
c 
c --- [ run-time profiling ] -------------------------------------------------
c 
c process time taken by individual solving procedures
c (percentage relative to process time for solving)
c 
c        16.09  100.00% search
c        15.90   98.80% parse
c        13.14   81.68% unstable
c         1.87   11.62% stable
c         1.08    6.69% lucky
c         0.00    0.00% simplify
c   =================================
c        16.09   49.24% solve
c 
c last line shows process time for solving
c (percentage relative to total process time)
c 
c --- [ statistics ] ---------------------------------------------------------
c 
c chronological:              1196        24.65 %  of conflicts
c conflicts:                  4851       301.44    per second
c decisions:                 21099      1311.11    per second
c fixed:                       733        11.90 %  of all variables
c learned:                    4688        96.64 %  per conflict
c learned_lits:             879902       100.00 %  learned literals
c minimized:                     0         0.00 %  learned literals
c shrunken:                 532035        60.47 %  learned literals
c minishrunken:              72791         8.27 %  learned literals
c propagations:             719739         0.04 M  per second
c reduced:                    1081        22.28 %  per conflict
c rephased:                      2      2425.50    interval
c restarts:                    128        37.90    interval
c stabilizing:                   1        41.27 %  of conflicts
c subsumed:                   1167         0.04 %  of all clauses
c 
c seconds are measured in process time for solving
c 
c --- [ resources ] ----------------------------------------------------------
c 
c total process time since initialization:        32.68    seconds
c total real time since initialization:           32.97    seconds
c maximum resident set size of process:         1547.41    MB
c 
c --- [ shutting down ] ------------------------------------------------------
c 
c exit 10
WARNING! DIMACS header mismatch: wrong number of variables.
============================[ Problem Statistics ]=============================
|                                                                             |
|  Number of variables:          6120                                         |
|  Number of clauses:          218548                                         |
|  Parse time:                   1.29 s                                       |
|  Simplification time:          0.03 s                                       |
|                                                                             |
============================[ Search Statistics ]====================================================
| Conflicts |          ORIGINAL         |          LEARNT          | Num Sols |      SUBGRAPHS      |
|           |    Vars  Clauses Literals |    Limit  Clauses Lit/Cl |          | Canonical Noncanon. |
=====================================================================================================
|       101 |    6027   218549 21823025 |     2000      100     78 |        0 |        24         1 |
|       301 |    6027   218599 21825075 |     2000      300     79 |        0 |        36        51 |
|       528 |    6026   218601 21825132 |     2000      526     78 |        0 |        38        53 |
|       885 |    6026   218621 21825607 |     2000      883     87 |        0 |        51        73 |
|      1392 |    6026   218622 21825625 |     2000     1390     95 |        0 |        67        74 |
|      2186 |    6024   218657 21826296 |     3600     1186     63 |        0 |        96       109 |
|      3368 |    6005   218700 21827574 |     3600     2366     77 |        0 |       137       152 |
|      5450 |    5995   219074 21835779 |     4997     2645     49 |        0 |       284       526 |
|      8097 |    5995   219159 21837437 |     6299     2796     46 |        0 |       304       611 |
|     11960 |    5992   219178 21838027 |     7551     3511     44 |        0 |       328       630 |
|     17837 |    5992   219289 21840408 |     8778     5615     60 |        0 |       361       741 |
|     27197 |    5991   220000 21850669 |    11205     5601     43 |        0 |       683      1452 |
|     41813 |    5963   221642 21881706 |    13606     8419     47 |        0 |      1134      3094 |
|     64826 |    5963   225194 21951556 |    17208     9234     36 |        0 |      2330      6646 |
|     95813 |    5963   226989 21982098 |    20823    12636     43 |        0 |      2745      8441 |
|    145936 |    5963   233323 22096716 |    25615    17551     49 |        0 |      5525     14775 |
|    226834 |    5963   219148 19458795 |    31611    28445     59 |        0 |      9864     29989 |
|    326344 |    5963   220132 19481484 |    38821    24165     45 |        0 |     10346     30973 |
|    536025 |    5963   282024 20391485 |    49620    37645     37 |        0 |     26375     92865 |
|    882105 |    5963   406421 22182574 |    64008    46513     42 |        0 |     79586    217262 |
|   1373171 |    5962   564959 24513433 |    79611    74782     45 |        0 |    142311    375803 |
|   2113592 |    5953   508437 23626021 |    99423    56415     36 |        0 |    220673    617436 |
=====================================================================================================
Number of solutions   : 0
Canonical subgraphs   : 280197         (19 /sec)
          order  3    : 1              (250000 /sec)
          order  4    : 1              (500000 /sec)
          order  5    : 1              (250000 /sec)
          order  6    : 1              (55556 /sec)
          order  7    : 1              (8772 /sec)
          order  8    : 2              (1383 /sec)
          order  9    : 7              (359 /sec)
          order 10    : 28             (104 /sec)
          order 11    : 112            (29 /sec)
          order 12    : 608            (21 /sec)
          order 13    : 3721           (19 /sec)
          order 14    : 30190          (21 /sec)
          order 15    : 151696         (20 /sec)
          order 16    : 45779          (18 /sec)
          order 17    : 34546          (15 /sec)
          order 18    : 9163           (15 /sec)
          order 19    : 3752           (14 /sec)
          order 20    : 366            (18 /sec)
          order 21    : 222            (19 /sec)
          order 22    : 0              (-nan /sec)
Noncanonical subgraphs: 737612         (178 /sec)
          order  3    : 0              (-nan /sec)
          order  4    : 0              (-nan /sec)
          order  5    : 0              (-nan /sec)
          order  6    : 0              (-nan /sec)
          order  7    : 0              (-nan /sec)
          order  8    : 0              (-nan /sec)
          order  9    : 0              (-nan /sec)
          order 10    : 0              (-nan /sec)
          order 11    : 0              (-nan /sec)
          order 12    : 0              (-nan /sec)
          order 13    : 8327           (6977 /sec)
          order 14    : 117157         (955 /sec)
          order 15    : 113089         (1121 /sec)
          order 16    : 489917         (130 /sec)
          order 17    : 8848           (58 /sec)
          order 18    : 13             (590 /sec)
          order 19    : 5              (8052 /sec)
          order 20    : 1              (1859 /sec)
          order 21    : 0              (-nan /sec)
Canonicity checking   : 14988.2 s
Noncanonicity checking: 4150.8 s
Total canonicity time : 19139 s
database reductions   : 93
restarts              : 4861
conflicts             : 2786740        (137 /sec)
decisions             : 4118445        (0.00 % random) (202 /sec)
propagations          : 344115160      (16877 /sec)
conflict literals     : 224381648      (56.67 % deleted)
actual reward         : 0.103211
Memory used           : 409.00 MB
CPU time              : 20389.9 s

UNSATISFIABLE
